results_rootrelaxation/bin012_080_049.srr.sol
solution status: optimal solution found
objective value:                                   19
_var87_                             0.387096774193549 	(obj:1)
_var717_                            0.161290322580645 	(obj:2)
_var734_                           0.0967741935483869 	(obj:1)
_var737_                           0.0967741935483863 	(obj:3)
_var746_                            0.225806451612903 	(obj:2)
_var749_                             0.03225806451613 	(obj:2)
_var757_                           0.0967741935483876 	(obj:2)
_var759_                           0.0322580645161297 	(obj:1)
_var761_                            0.161290322580645 	(obj:2)
_var764_                            0.161290322580645 	(obj:2)
_var775_                            0.419354838709678 	(obj:1)
_var788_                            0.354838709677419 	(obj:2)
_var793_                            0.483870967741936 	(obj:0)
_var796_                            0.129032258064517 	(obj:1)
_var797_                            0.225806451612903 	(obj:3)
_var798_                            0.193548387096773 	(obj:1)
_var800_                            0.387096774193548 	(obj:1)
_var811_                            0.161290322580645 	(obj:1)
_var820_                           0.0967741935483877 	(obj:2)
_var826_                            0.129032258064516 	(obj:0)
_var830_                           0.0967741935483871 	(obj:2)
_var837_                            0.258064516129032 	(obj:0)
_var849_                            0.322580645161291 	(obj:2)
_var853_                           0.0645161290322586 	(obj:1)
_var854_                            0.064516129032258 	(obj:3)
_var857_                            0.161290322580645 	(obj:2)
_var858_                           0.0967741935483876 	(obj:2)
_var869_                            0.193548387096773 	(obj:2)
_var870_                           0.0322580645161284 	(obj:2)
_var871_                            0.161290322580645 	(obj:3)
_var872_                            0.193548387096774 	(obj:1)
_var877_                            0.516129032258064 	(obj:2)
_var883_                           0.0967741935483857 	(obj:1)
_var885_                           0.0322580645161288 	(obj:1)
_var889_                            0.258064516129032 	(obj:1)
_var890_                           0.0967741935483877 	(obj:3)
_var892_                            0.129032258064517 	(obj:2)
_var894_                            0.161290322580645 	(obj:1)
_var895_                            0.129032258064516 	(obj:2)
_var897_                            0.161290322580645 	(obj:2)
_var901_                            0.258064516129032 	(obj:2)
_var904_                            0.193548387096775 	(obj:3)
_var905_                             0.35483870967742 	(obj:1)
_var908_                            0.387096774193548 	(obj:2)
_var909_                           0.0322580645161284 	(obj:2)
_var910_                            0.322580645161291 	(obj:2)
_var914_                            0.225806451612904 	(obj:1)
_var918_                           0.0322580645161292 	(obj:2)
_var919_                           0.0967741935483876 	(obj:3)
_var920_                           0.0645161290322578 	(obj:2)
_var921_                            0.258064516129032 	(obj:3)
_var923_                           0.0967741935483874 	(obj:3)
_var924_                            0.225806451612903 	(obj:2)
_var925_                           0.0645161290322578 	(obj:3)
_var928_                           0.0967741935483858 	(obj:2)
_var930_                            0.419354838709678 	(obj:3)
_var933_                            0.129032258064516 	(obj:3)
_var940_                            0.161290322580645 	(obj:3)
_var941_                            0.129032258064516 	(obj:1)
_var942_                           0.0645161290322581 	(obj:3)
_var943_                           0.0645161290322579 	(obj:2)
_var945_                           0.0645161290322574 	(obj:1)
