results_rootrelaxation/bin012_080_049.srr.log
SCIP version 8.0.3.5 [precision: 8 byte] [memory: block] [mode: optimized] [LP solver: Soplex 6.0.1.3] [GitHash: 438792519e]
Copyright (c) 2002-2023 Zuse Institute Berlin (ZIB)

External libraries: 
  Readline 8.1         GNU library for command line editing (gnu.org/s/readline)
  Soplex 6.0.1.3       Linear Programming Solver developed at Zuse Institute Berlin (soplex.zib.de) [GitHash: 713be0fe]
  CppAD 20180000.0     Algorithmic Differentiation of C++ algorithms developed by B. Bell (github.com/coin-or/CppAD)
  ZLIB 1.2.11          General purpose compression library by J. Gailly and M. Adler (zlib.net)
  bliss 0.77           Computing Graph Automorphism Groups by T. Junttila and P. Kaski (www.tcs.hut.fi/Software/bliss/)

user parameter file <scip.set> not found - using default parameters

srr/relaxation = TRUE

read problem <instances/bin012_080_049.srr>
============

Original problem: 
original problem has 0 variables (0 bin, 0 int, 0 impl, 0 cont) and 77 constraints

presolving:
presolving (1 rounds: 1 fast, 1 medium, 1 exhaustive):
 0 deleted vars, 0 deleted constraints, 0 added constraints, 0 tightened bounds, 0 added holes, 0 changed sides, 0 changed coefficients
 0 implications, 0 cliques
presolved problem has 0 variables (0 bin, 0 int, 0 impl, 0 cont) and 77 constraints
     77 constraints of type <linear>
Presolving Time: 0.00

 time | node  | left  |LP iter|LP it/n|mem/heur|mdpt |vars |cons |rows |cuts |sepa|confs|strbr|  dualbound   | primalbound  |  gap   | compl. 
  0.0s|     1 |     0 |     1 |     - |   710k |   0 |   1 |  77 |  77 |   0 |  0 |   0 |   0 |      --      |      --      |    Inf | unknown
r 0.1s|     1 |     0 |   734 |     - |simplero|   0 | 710 |  77 |  77 |   0 |  0 |   0 |   0 |      --      | 3.513584e+01 |    Inf | unknown
r 0.1s|     1 |     0 |   790 |     - |simplero|   0 | 721 |  77 |  77 |   0 |  0 |   0 |   0 |      --      | 3.308999e+01 |    Inf | unknown
r 0.1s|     1 |     0 |   828 |     - |simplero|   0 | 732 |  77 |  77 |   0 |  0 |   0 |   0 |      --      | 3.187748e+01 |    Inf | unknown
r 0.1s|     1 |     0 |   861 |     - |simplero|   0 | 743 |  77 |  77 |   0 |  0 |   0 |   0 |      --      | 3.036519e+01 |    Inf | unknown
r 0.1s|     1 |     0 |   894 |     - |simplero|   0 | 754 |  77 |  77 |   0 |  0 |   0 |   0 |      --      | 2.917983e+01 |    Inf | unknown
r 0.1s|     1 |     0 |   944 |     - |simplero|   0 | 754 |  77 |  77 |   0 |  0 |   0 |   0 |      --      | 2.887478e+01 |    Inf | unknown
r 0.1s|     1 |     0 |   964 |     - |simplero|   0 | 754 |  77 |  77 |   0 |  0 |   0 |   0 |      --      | 2.880157e+01 |    Inf | unknown
r 0.1s|     1 |     0 |  1029 |     - |simplero|   0 | 765 |  77 |  77 |   0 |  0 |   0 |   0 |      --      | 2.744361e+01 |    Inf | unknown
r 0.1s|     1 |     0 |  1075 |     - |simplero|   0 | 776 |  77 |  77 |   0 |  0 |   0 |   0 |      --      | 2.672682e+01 |    Inf | unknown
r 0.1s|     1 |     0 |  1076 |     - |simplero|   0 | 776 |  77 |  77 |   0 |  0 |   0 |   0 |      --      | 2.672540e+01 |    Inf | unknown
r 0.1s|     1 |     0 |  1119 |     - |simplero|   0 | 787 |  77 |  77 |   0 |  0 |   0 |   0 |      --      | 2.578906e+01 |    Inf | unknown
r 0.1s|     1 |     0 |  1165 |     - |simplero|   0 | 787 |  77 |  77 |   0 |  0 |   0 |   0 |      --      | 2.510034e+01 |    Inf | unknown
r 0.1s|     1 |     0 |  1176 |     - |simplero|   0 | 787 |  77 |  77 |   0 |  0 |   0 |   0 |      --      | 2.503003e+01 |    Inf | unknown
r 0.1s|     1 |     0 |  1184 |     - |simplero|   0 | 787 |  77 |  77 |   0 |  0 |   0 |   0 |      --      | 2.502640e+01 |    Inf | unknown
 time | node  | left  |LP iter|LP it/n|mem/heur|mdpt |vars |cons |rows |cuts |sepa|confs|strbr|  dualbound   | primalbound  |  gap   | compl. 
r 0.1s|     1 |     0 |  1185 |     - |simplero|   0 | 787 |  77 |  77 |   0 |  0 |   0 |   0 |      --      | 2.502639e+01 |    Inf | unknown
r 0.1s|     1 |     0 |  1245 |     - |simplero|   0 | 798 |  77 |  77 |   0 |  0 |   0 |   0 |      --      | 2.447548e+01 |    Inf | unknown
r 0.1s|     1 |     0 |  1254 |     - |simplero|   0 | 798 |  77 |  77 |   0 |  0 |   0 |   0 |      --      | 2.441795e+01 |    Inf | unknown
r 0.1s|     1 |     0 |  1257 |     - |simplero|   0 | 798 |  77 |  77 |   0 |  0 |   0 |   0 |      --      | 2.441581e+01 |    Inf | unknown
r 0.1s|     1 |     0 |  1260 |     - |simplero|   0 | 798 |  77 |  77 |   0 |  0 |   0 |   0 |      --      | 2.441524e+01 |    Inf | unknown
r 0.1s|     1 |     0 |  1262 |     - |simplero|   0 | 798 |  77 |  77 |   0 |  0 |   0 |   0 |      --      | 2.441480e+01 |    Inf | unknown
r 0.1s|     1 |     0 |  1299 |     - |simplero|   0 | 809 |  77 |  77 |   0 |  0 |   0 |   0 |      --      | 2.356604e+01 |    Inf | unknown
r 0.1s|     1 |     0 |  1314 |     - |simplero|   0 | 809 |  77 |  77 |   0 |  0 |   0 |   0 |      --      | 2.334249e+01 |    Inf | unknown
r 0.1s|     1 |     0 |  1324 |     - |simplero|   0 | 809 |  77 |  77 |   0 |  0 |   0 |   0 |      --      | 2.330598e+01 |    Inf | unknown
r 0.1s|     1 |     0 |  1327 |     - |simplero|   0 | 809 |  77 |  77 |   0 |  0 |   0 |   0 |      --      | 2.330473e+01 |    Inf | unknown
r 0.1s|     1 |     0 |  1385 |     - |simplero|   0 | 820 |  77 |  77 |   0 |  0 |   0 |   0 |      --      | 2.242510e+01 |    Inf | unknown
r 0.1s|     1 |     0 |  1399 |     - |simplero|   0 | 820 |  77 |  77 |   0 |  0 |   0 |   0 |      --      | 2.236322e+01 |    Inf | unknown
r 0.1s|     1 |     0 |  1402 |     - |simplero|   0 | 820 |  77 |  77 |   0 |  0 |   0 |   0 |      --      | 2.236084e+01 |    Inf | unknown
r 0.1s|     1 |     0 |  1450 |     - |simplero|   0 | 831 |  77 |  77 |   0 |  0 |   0 |   0 |      --      | 2.135559e+01 |    Inf | unknown
r 0.1s|     1 |     0 |  1493 |     - |simplero|   0 | 842 |  77 |  77 |   0 |  0 |   0 |   0 |      --      | 2.100361e+01 |    Inf | unknown
 time | node  | left  |LP iter|LP it/n|mem/heur|mdpt |vars |cons |rows |cuts |sepa|confs|strbr|  dualbound   | primalbound  |  gap   | compl. 
  0.1s|     1 |     0 |  1507 |     - |  4183k |   0 | 842 |  77 |  77 |   0 |  0 |   0 |   0 |      --      | 2.100361e+01 |    Inf | unknown
r 0.1s|     1 |     0 |  1507 |     - |simplero|   0 | 842 |  77 |  77 |   0 |  0 |   0 |   0 |      --      | 2.093810e+01 |    Inf | unknown
r 0.1s|     1 |     0 |  1542 |     - |simplero|   0 | 853 |  77 |  77 |   0 |  0 |   0 |   0 |      --      | 2.068705e+01 |    Inf | unknown
r 0.1s|     1 |     0 |  1545 |     - |simplero|   0 | 853 |  77 |  77 |   0 |  0 |   0 |   0 |      --      | 2.068695e+01 |    Inf | unknown
r 0.1s|     1 |     0 |  1587 |     - |simplero|   0 | 864 |  77 |  77 |   0 |  0 |   0 |   0 |      --      | 2.032340e+01 |    Inf | unknown
r 0.1s|     1 |     0 |  1618 |     - |simplero|   0 | 874 |  77 |  77 |   0 |  0 |   0 |   0 |      --      | 2.008547e+01 |    Inf | unknown
r 0.1s|     1 |     0 |  1624 |     - |simplero|   0 | 874 |  77 |  77 |   0 |  0 |   0 |   0 |      --      | 2.008423e+01 |    Inf | unknown
r 0.1s|     1 |     0 |  1647 |     - |simplero|   0 | 885 |  77 |  77 |   0 |  0 |   0 |   0 |      --      | 2.000332e+01 |    Inf | unknown
r 0.1s|     1 |     0 |  1669 |     - |simplero|   0 | 885 |  77 |  77 |   0 |  0 |   0 |   0 |      --      | 1.996279e+01 |    Inf | unknown
r 0.1s|     1 |     0 |  1689 |     - |simplero|   0 | 894 |  77 |  77 |   0 |  0 |   0 |   0 |      --      | 1.950000e+01 |    Inf | unknown
r 0.1s|     1 |     0 |  1737 |     - |simplero|   0 | 903 |  77 |  77 |   0 |  0 |   0 |   0 |      --      | 1.946941e+01 |    Inf | unknown
r 0.1s|     1 |     0 |  1758 |     - |simplero|   0 | 914 |  77 |  77 |   0 |  0 |   0 |   0 |      --      | 1.936427e+01 |    Inf | unknown
r 0.1s|     1 |     0 |  1768 |     - |simplero|   0 | 914 |  77 |  77 |   0 |  0 |   0 |   0 |      --      | 1.932639e+01 |    Inf | unknown
r 0.1s|     1 |     0 |  1774 |     - |simplero|   0 | 914 |  77 |  77 |   0 |  0 |   0 |   0 |      --      | 1.930263e+01 |    Inf | unknown
r 0.1s|     1 |     0 |  1799 |     - |simplero|   0 | 924 |  77 |  77 |   0 |  0 |   0 |   0 |      --      | 1.920712e+01 |    Inf | unknown
 time | node  | left  |LP iter|LP it/n|mem/heur|mdpt |vars |cons |rows |cuts |sepa|confs|strbr|  dualbound   | primalbound  |  gap   | compl. 
r 0.1s|     1 |     0 |  1828 |     - |simplero|   0 | 933 |  77 |  77 |   0 |  0 |   0 |   0 |      --      | 1.906736e+01 |    Inf | unknown
r 0.1s|     1 |     0 |  1830 |     - |simplero|   0 | 933 |  77 |  77 |   0 |  0 |   0 |   0 |      --      | 1.906707e+01 |    Inf | unknown
r 0.1s|     1 |     0 |  1857 |     - |simplero|   0 | 942 |  77 |  77 |   0 |  0 |   0 |   0 |      --      | 1.900658e+01 |    Inf | unknown
r 0.1s|     1 |     0 |  1862 |     - |simplero|   0 | 946 |  77 |  77 |   0 |  0 |   0 |   0 |      --      | 1.900000e+01 |    Inf | unknown
  0.1s|     1 |     0 |  1862 |     - |  4701k |   0 | 946 |  77 |  77 |   0 |  0 |   0 |   0 | 1.900000e+01 | 1.900000e+01 |   0.00%| unknown
  0.1s|     1 |     0 |  1862 |     - |  4701k |   0 | 946 |  77 |  77 |   0 |  0 |   0 |   0 | 1.900000e+01 | 1.900000e+01 |   0.00%| unknown

SCIP Status        : problem is solved [optimal solution found]
Solving Time (sec) : 0.11
Solving Nodes      : 1
Primal Bound       : +1.90000000000000e+01 (47 solutions)
Dual Bound         : +1.90000000000000e+01
Gap                : 0.00 %

written transformed problem to file <results_rootrelaxation/bin012_080_049.srr.lp>
written transformed problem to file <results_rootrelaxation/bin012_080_049.srr.cip>

written solution information to file <results_rootrelaxation/bin012_080_049.srr.sol>



